6 1000000000
0 774980747 999901789 294967301 999999999 917168488
774980747 0 737912616 999999999 877185203 999999999
999901789 737912616 0 988511355 999999999 999999999
294967301 999999999 988511355 0 985502798 818957211
999999999 877185203 999999999 985502798 0 801463051
917168488 999999999 999999999 818957211 801463051 0
